; benchmark generated from python API
(set-info :status unknown)
(declare-fun x_months () (_ BitVec 32))
(declare-fun x_beta () (_ BitVec 32))
(declare-fun y_months () (_ BitVec 32))
(declare-fun y_beta () (_ BitVec 32))
(assert
 (bvsle (_ bv4294966096 32) x_months))
(assert
 (bvsge (_ bv1199 32) x_months))
(assert
 (let ((?x19423 (bvsmod x_months (_ bv48 32))))
 (let ((?x13 ((as const (Array (_ BitVec 32) (_ BitVec 32))) (_ bv0 32))))
 (let ((?x15 (store ?x13 (_ bv0 32) (_ bv31 32))))
 (let ((?x18 (store ?x15 (_ bv1 32) (_ bv30 32))))
 (let ((?x20 (store ?x18 (_ bv2 32) (_ bv31 32))))
 (let ((?x22 (store ?x20 (_ bv3 32) (_ bv30 32))))
 (let ((?x24 (store ?x22 (_ bv4 32) (_ bv31 32))))
 (let ((?x26 (store ?x24 (_ bv5 32) (_ bv31 32))))
 (let ((?x28 (store ?x26 (_ bv6 32) (_ bv30 32))))
 (let ((?x30 (store ?x28 (_ bv7 32) (_ bv31 32))))
 (let ((?x32 (store ?x30 (_ bv8 32) (_ bv30 32))))
 (let ((?x34 (store ?x32 (_ bv9 32) (_ bv31 32))))
 (let ((?x36 (store ?x34 (_ bv10 32) (_ bv31 32))))
 (let ((?x39 (store ?x36 (_ bv11 32) (_ bv28 32))))
 (let ((?x41 (store ?x39 (_ bv12 32) (_ bv31 32))))
 (let ((?x43 (store ?x41 (_ bv13 32) (_ bv30 32))))
 (let ((?x45 (store ?x43 (_ bv14 32) (_ bv31 32))))
 (let ((?x47 (store ?x45 (_ bv15 32) (_ bv30 32))))
 (let ((?x49 (store ?x47 (_ bv16 32) (_ bv31 32))))
 (let ((?x51 (store ?x49 (_ bv17 32) (_ bv31 32))))
 (let ((?x53 (store ?x51 (_ bv18 32) (_ bv30 32))))
 (let ((?x55 (store ?x53 (_ bv19 32) (_ bv31 32))))
 (let ((?x57 (store ?x55 (_ bv20 32) (_ bv30 32))))
 (let ((?x59 (store ?x57 (_ bv21 32) (_ bv31 32))))
 (let ((?x61 (store ?x59 (_ bv22 32) (_ bv31 32))))
 (let ((?x63 (store ?x61 (_ bv23 32) (_ bv28 32))))
 (let ((?x65 (store ?x63 (_ bv24 32) (_ bv31 32))))
 (let ((?x67 (store ?x65 (_ bv25 32) (_ bv30 32))))
 (let ((?x69 (store ?x67 (_ bv26 32) (_ bv31 32))))
 (let ((?x71 (store ?x69 (_ bv27 32) (_ bv30 32))))
 (let ((?x72 (store ?x71 (_ bv28 32) (_ bv31 32))))
 (let ((?x74 (store ?x72 (_ bv29 32) (_ bv31 32))))
 (let ((?x75 (store ?x74 (_ bv30 32) (_ bv30 32))))
 (let ((?x76 (store ?x75 (_ bv31 32) (_ bv31 32))))
 (let ((?x78 (store ?x76 (_ bv32 32) (_ bv30 32))))
 (let ((?x80 (store ?x78 (_ bv33 32) (_ bv31 32))))
 (let ((?x82 (store ?x80 (_ bv34 32) (_ bv31 32))))
 (let ((?x84 (store ?x82 (_ bv35 32) (_ bv28 32))))
 (let ((?x86 (store ?x84 (_ bv36 32) (_ bv31 32))))
 (let ((?x88 (store ?x86 (_ bv37 32) (_ bv30 32))))
 (let ((?x90 (store ?x88 (_ bv38 32) (_ bv31 32))))
 (let ((?x92 (store ?x90 (_ bv39 32) (_ bv30 32))))
 (let ((?x94 (store ?x92 (_ bv40 32) (_ bv31 32))))
 (let ((?x96 (store ?x94 (_ bv41 32) (_ bv31 32))))
 (let ((?x98 (store ?x96 (_ bv42 32) (_ bv30 32))))
 (let ((?x100 (store ?x98 (_ bv43 32) (_ bv31 32))))
 (let ((?x102 (store ?x100 (_ bv44 32) (_ bv30 32))))
 (let ((?x104 (store ?x102 (_ bv45 32) (_ bv31 32))))
 (let ((?x106 (store ?x104 (_ bv46 32) (_ bv31 32))))
 (let ((?x108 (store ?x106 (_ bv47 32) (_ bv29 32))))
 (let (($x28985 (or (= (_ bv22802 32) (bvadd x_months (_ bv24003 32))) (= (_ bv25202 32) (bvadd x_months (_ bv24003 32))))))
 (let ((?x29233 (ite $x28985 (_ bv28 32) (select ?x108 ?x19423))))
 (let (($x58011 (bvsle (_ bv0 32) x_beta)))
 (and $x58011 (bvslt x_beta ?x29233))))))))))))))))))))))))))))))))))))))))))))))))))))))))
(assert
 (bvsle (_ bv4294966096 32) y_months))
(assert
 (bvsge (_ bv1199 32) y_months))
(assert
 (let ((?x44028 (bvsmod y_months (_ bv48 32))))
 (let ((?x13 ((as const (Array (_ BitVec 32) (_ BitVec 32))) (_ bv0 32))))
 (let ((?x15 (store ?x13 (_ bv0 32) (_ bv31 32))))
 (let ((?x18 (store ?x15 (_ bv1 32) (_ bv30 32))))
 (let ((?x20 (store ?x18 (_ bv2 32) (_ bv31 32))))
 (let ((?x22 (store ?x20 (_ bv3 32) (_ bv30 32))))
 (let ((?x24 (store ?x22 (_ bv4 32) (_ bv31 32))))
 (let ((?x26 (store ?x24 (_ bv5 32) (_ bv31 32))))
 (let ((?x28 (store ?x26 (_ bv6 32) (_ bv30 32))))
 (let ((?x30 (store ?x28 (_ bv7 32) (_ bv31 32))))
 (let ((?x32 (store ?x30 (_ bv8 32) (_ bv30 32))))
 (let ((?x34 (store ?x32 (_ bv9 32) (_ bv31 32))))
 (let ((?x36 (store ?x34 (_ bv10 32) (_ bv31 32))))
 (let ((?x39 (store ?x36 (_ bv11 32) (_ bv28 32))))
 (let ((?x41 (store ?x39 (_ bv12 32) (_ bv31 32))))
 (let ((?x43 (store ?x41 (_ bv13 32) (_ bv30 32))))
 (let ((?x45 (store ?x43 (_ bv14 32) (_ bv31 32))))
 (let ((?x47 (store ?x45 (_ bv15 32) (_ bv30 32))))
 (let ((?x49 (store ?x47 (_ bv16 32) (_ bv31 32))))
 (let ((?x51 (store ?x49 (_ bv17 32) (_ bv31 32))))
 (let ((?x53 (store ?x51 (_ bv18 32) (_ bv30 32))))
 (let ((?x55 (store ?x53 (_ bv19 32) (_ bv31 32))))
 (let ((?x57 (store ?x55 (_ bv20 32) (_ bv30 32))))
 (let ((?x59 (store ?x57 (_ bv21 32) (_ bv31 32))))
 (let ((?x61 (store ?x59 (_ bv22 32) (_ bv31 32))))
 (let ((?x63 (store ?x61 (_ bv23 32) (_ bv28 32))))
 (let ((?x65 (store ?x63 (_ bv24 32) (_ bv31 32))))
 (let ((?x67 (store ?x65 (_ bv25 32) (_ bv30 32))))
 (let ((?x69 (store ?x67 (_ bv26 32) (_ bv31 32))))
 (let ((?x71 (store ?x69 (_ bv27 32) (_ bv30 32))))
 (let ((?x72 (store ?x71 (_ bv28 32) (_ bv31 32))))
 (let ((?x74 (store ?x72 (_ bv29 32) (_ bv31 32))))
 (let ((?x75 (store ?x74 (_ bv30 32) (_ bv30 32))))
 (let ((?x76 (store ?x75 (_ bv31 32) (_ bv31 32))))
 (let ((?x78 (store ?x76 (_ bv32 32) (_ bv30 32))))
 (let ((?x80 (store ?x78 (_ bv33 32) (_ bv31 32))))
 (let ((?x82 (store ?x80 (_ bv34 32) (_ bv31 32))))
 (let ((?x84 (store ?x82 (_ bv35 32) (_ bv28 32))))
 (let ((?x86 (store ?x84 (_ bv36 32) (_ bv31 32))))
 (let ((?x88 (store ?x86 (_ bv37 32) (_ bv30 32))))
 (let ((?x90 (store ?x88 (_ bv38 32) (_ bv31 32))))
 (let ((?x92 (store ?x90 (_ bv39 32) (_ bv30 32))))
 (let ((?x94 (store ?x92 (_ bv40 32) (_ bv31 32))))
 (let ((?x96 (store ?x94 (_ bv41 32) (_ bv31 32))))
 (let ((?x98 (store ?x96 (_ bv42 32) (_ bv30 32))))
 (let ((?x100 (store ?x98 (_ bv43 32) (_ bv31 32))))
 (let ((?x102 (store ?x100 (_ bv44 32) (_ bv30 32))))
 (let ((?x104 (store ?x102 (_ bv45 32) (_ bv31 32))))
 (let ((?x106 (store ?x104 (_ bv46 32) (_ bv31 32))))
 (let ((?x108 (store ?x106 (_ bv47 32) (_ bv29 32))))
 (let (($x21579 (or (= (_ bv22802 32) (bvadd y_months (_ bv24003 32))) (= (_ bv25202 32) (bvadd y_months (_ bv24003 32))))))
 (let ((?x24143 (ite $x21579 (_ bv28 32) (select ?x108 ?x44028))))
 (let (($x6130 (bvsle (_ bv0 32) y_beta)))
 (and $x6130 (bvslt y_beta ?x24143))))))))))))))))))))))))))))))))))))))))))))))))))))))))
(assert
 (and (= x_months (bvsub (bvadd (bvmul (_ bv2023 32) (_ bv12 32)) (_ bv1 32)) (_ bv24003 32))) (= (_ bv30 32) x_beta)))
(assert
 (let ((?x64820 (bvadd x_months (_ bv3 32))))
 (let ((?x30212 (bvsmod ?x64820 (_ bv48 32))))
 (let ((?x33885 (ite (bvsgt (_ bv22803 32) (bvadd ?x64820 (_ bv24003 32))) (_ bv1 32) (ite (bvsle (_ bv25203 32) (bvadd ?x64820 (_ bv24003 32))) (_ bv4294967295 32) (_ bv0 32)))))
 (let ((?x13 ((as const (Array (_ BitVec 32) (_ BitVec 32))) (_ bv0 32))))
 (let ((?x15 (store ?x13 (_ bv0 32) (_ bv31 32))))
 (let ((?x18 (store ?x15 (_ bv1 32) (_ bv30 32))))
 (let ((?x20 (store ?x18 (_ bv2 32) (_ bv31 32))))
 (let ((?x22 (store ?x20 (_ bv3 32) (_ bv30 32))))
 (let ((?x24 (store ?x22 (_ bv4 32) (_ bv31 32))))
 (let ((?x26 (store ?x24 (_ bv5 32) (_ bv31 32))))
 (let ((?x28 (store ?x26 (_ bv6 32) (_ bv30 32))))
 (let ((?x30 (store ?x28 (_ bv7 32) (_ bv31 32))))
 (let ((?x32 (store ?x30 (_ bv8 32) (_ bv30 32))))
 (let ((?x34 (store ?x32 (_ bv9 32) (_ bv31 32))))
 (let ((?x36 (store ?x34 (_ bv10 32) (_ bv31 32))))
 (let ((?x39 (store ?x36 (_ bv11 32) (_ bv28 32))))
 (let ((?x41 (store ?x39 (_ bv12 32) (_ bv31 32))))
 (let ((?x43 (store ?x41 (_ bv13 32) (_ bv30 32))))
 (let ((?x45 (store ?x43 (_ bv14 32) (_ bv31 32))))
 (let ((?x47 (store ?x45 (_ bv15 32) (_ bv30 32))))
 (let ((?x49 (store ?x47 (_ bv16 32) (_ bv31 32))))
 (let ((?x51 (store ?x49 (_ bv17 32) (_ bv31 32))))
 (let ((?x53 (store ?x51 (_ bv18 32) (_ bv30 32))))
 (let ((?x55 (store ?x53 (_ bv19 32) (_ bv31 32))))
 (let ((?x57 (store ?x55 (_ bv20 32) (_ bv30 32))))
 (let ((?x59 (store ?x57 (_ bv21 32) (_ bv31 32))))
 (let ((?x61 (store ?x59 (_ bv22 32) (_ bv31 32))))
 (let ((?x63 (store ?x61 (_ bv23 32) (_ bv28 32))))
 (let ((?x65 (store ?x63 (_ bv24 32) (_ bv31 32))))
 (let ((?x67 (store ?x65 (_ bv25 32) (_ bv30 32))))
 (let ((?x69 (store ?x67 (_ bv26 32) (_ bv31 32))))
 (let ((?x71 (store ?x69 (_ bv27 32) (_ bv30 32))))
 (let ((?x72 (store ?x71 (_ bv28 32) (_ bv31 32))))
 (let ((?x74 (store ?x72 (_ bv29 32) (_ bv31 32))))
 (let ((?x75 (store ?x74 (_ bv30 32) (_ bv30 32))))
 (let ((?x76 (store ?x75 (_ bv31 32) (_ bv31 32))))
 (let ((?x78 (store ?x76 (_ bv32 32) (_ bv30 32))))
 (let ((?x80 (store ?x78 (_ bv33 32) (_ bv31 32))))
 (let ((?x82 (store ?x80 (_ bv34 32) (_ bv31 32))))
 (let ((?x84 (store ?x82 (_ bv35 32) (_ bv28 32))))
 (let ((?x86 (store ?x84 (_ bv36 32) (_ bv31 32))))
 (let ((?x88 (store ?x86 (_ bv37 32) (_ bv30 32))))
 (let ((?x90 (store ?x88 (_ bv38 32) (_ bv31 32))))
 (let ((?x92 (store ?x90 (_ bv39 32) (_ bv30 32))))
 (let ((?x94 (store ?x92 (_ bv40 32) (_ bv31 32))))
 (let ((?x96 (store ?x94 (_ bv41 32) (_ bv31 32))))
 (let ((?x98 (store ?x96 (_ bv42 32) (_ bv30 32))))
 (let ((?x100 (store ?x98 (_ bv43 32) (_ bv31 32))))
 (let ((?x102 (store ?x100 (_ bv44 32) (_ bv30 32))))
 (let ((?x104 (store ?x102 (_ bv45 32) (_ bv31 32))))
 (let ((?x106 (store ?x104 (_ bv46 32) (_ bv31 32))))
 (let ((?x108 (store ?x106 (_ bv47 32) (_ bv29 32))))
 (let ((?x33880 (ite (or (= (_ bv22802 32) (bvadd ?x64820 (_ bv24003 32))) (= (_ bv25202 32) (bvadd ?x64820 (_ bv24003 32)))) (_ bv28 32) (select ?x108 ?x30212))))
 (let ((?x34388 (bvsub ?x33880 (_ bv1 32))))
 (let ((?x43911 (ite (bvsgt (_ bv0 32) x_beta) (_ bv0 32) (ite (bvsgt x_beta ?x34388) ?x34388 x_beta))))
 (let ((?x114 (store (store (store (store ?x13 (_ bv0 32) (_ bv0 32)) (_ bv1 32) (_ bv31 32)) (_ bv2 32) (_ bv61 32)) (_ bv3 32) (_ bv92 32))))
 (let ((?x122 (store (store (store (store ?x114 (_ bv4 32) (_ bv122 32)) (_ bv5 32) (_ bv153 32)) (_ bv6 32) (_ bv184 32)) (_ bv7 32) (_ bv214 32))))
 (let ((?x130 (store (store (store (store ?x122 (_ bv8 32) (_ bv245 32)) (_ bv9 32) (_ bv275 32)) (_ bv10 32) (_ bv306 32)) (_ bv11 32) (_ bv337 32))))
 (let ((?x138 (store (store (store (store ?x130 (_ bv12 32) (_ bv365 32)) (_ bv13 32) (_ bv396 32)) (_ bv14 32) (_ bv426 32)) (_ bv15 32) (_ bv457 32))))
 (let ((?x146 (store (store (store (store ?x138 (_ bv16 32) (_ bv487 32)) (_ bv17 32) (_ bv518 32)) (_ bv18 32) (_ bv549 32)) (_ bv19 32) (_ bv579 32))))
 (let ((?x154 (store (store (store (store ?x146 (_ bv20 32) (_ bv610 32)) (_ bv21 32) (_ bv640 32)) (_ bv22 32) (_ bv671 32)) (_ bv23 32) (_ bv702 32))))
 (let ((?x162 (store (store (store (store ?x154 (_ bv24 32) (_ bv730 32)) (_ bv25 32) (_ bv761 32)) (_ bv26 32) (_ bv791 32)) (_ bv27 32) (_ bv822 32))))
 (let ((?x170 (store (store (store (store ?x162 (_ bv28 32) (_ bv852 32)) (_ bv29 32) (_ bv883 32)) (_ bv30 32) (_ bv914 32)) (_ bv31 32) (_ bv944 32))))
 (let ((?x178 (store (store (store (store ?x170 (_ bv32 32) (_ bv975 32)) (_ bv33 32) (_ bv1005 32)) (_ bv34 32) (_ bv1036 32)) (_ bv35 32) (_ bv1067 32))))
 (let ((?x186 (store (store (store (store ?x178 (_ bv36 32) (_ bv1095 32)) (_ bv37 32) (_ bv1126 32)) (_ bv38 32) (_ bv1156 32)) (_ bv39 32) (_ bv1187 32))))
 (let ((?x194 (store (store (store (store ?x186 (_ bv40 32) (_ bv1217 32)) (_ bv41 32) (_ bv1248 32)) (_ bv42 32) (_ bv1279 32)) (_ bv43 32) (_ bv1309 32))))
 (let ((?x202 (store (store (store (store ?x194 (_ bv44 32) (_ bv1340 32)) (_ bv45 32) (_ bv1370 32)) (_ bv46 32) (_ bv1401 32)) (_ bv47 32) (_ bv1432 32))))
 (let ((?x58387 (bvadd (bvadd (bvadd (select ?x202 ?x30212) ?x43911) ?x33885) (_ bv0 32))))
 (let ((?x8851 (ite (bvuge ?x58387 (_ bv2147483648 32)) (bvsub ?x58387 (_ bv0 32)) ?x58387)))
 (let ((?x34429 (bvsdiv ?x8851 (_ bv1461 32))))
 (let ((?x22218 (ite (and (bvuge ?x8851 (_ bv2147483648 32)) (and (distinct (_ bv0 32) (bvsmod ?x8851 (_ bv1461 32))) true)) (bvsub ?x34429 (_ bv1 32)) ?x34429)))
 (let ((?x61785 (bvadd ?x64820 (bvmul ?x22218 (_ bv48 32)))))
 (let ((?x65200 (bvadd (bvadd ?x61785 (bvsub (_ bv1 32) ?x30212)) (_ bv24003 32))))
 (let ((?x34637 (bvadd (select ?x202 (_ bv1 32)) (ite (bvsgt (_ bv22803 32) ?x65200) (_ bv1 32) (ite (bvsle (_ bv25203 32) ?x65200) (_ bv4294967295 32) (_ bv0 32))))))
 (let ((?x36158 (bvsmod ?x58387 (_ bv1461 32))))
 (let ((?x34636 (ite (bvsle (_ bv25203 32) (bvadd (bvadd ?x61785 (bvsub (_ bv2 32) ?x30212)) (_ bv24003 32))) (_ bv4294967295 32) (_ bv0 32))))
 (let ((?x46566 (ite (bvsgt (_ bv22803 32) (bvadd (bvadd ?x61785 (bvsub (_ bv2 32) ?x30212)) (_ bv24003 32))) (_ bv1 32) ?x34636)))
 (let ((?x35017 (ite (bvsge ?x36158 (bvadd (select ?x202 (_ bv2 32)) ?x46566)) (_ bv2 32) (ite (bvsge ?x36158 ?x34637) (_ bv1 32) (_ bv0 32)))))
 (let ((?x2429 (ite (bvsle (_ bv25203 32) (bvadd (bvadd ?x61785 (bvsub (_ bv3 32) ?x30212)) (_ bv24003 32))) (_ bv4294967295 32) (_ bv0 32))))
 (let ((?x28908 (ite (bvsgt (_ bv22803 32) (bvadd (bvadd ?x61785 (bvsub (_ bv3 32) ?x30212)) (_ bv24003 32))) (_ bv1 32) ?x2429)))
 (let ((?x23934 (ite (bvsle (_ bv25203 32) (bvadd (bvadd ?x61785 (bvsub (_ bv4 32) ?x30212)) (_ bv24003 32))) (_ bv4294967295 32) (_ bv0 32))))
 (let ((?x34217 (ite (bvsgt (_ bv22803 32) (bvadd (bvadd ?x61785 (bvsub (_ bv4 32) ?x30212)) (_ bv24003 32))) (_ bv1 32) ?x23934)))
 (let ((?x2247 (ite (bvsge ?x36158 (bvadd (select ?x202 (_ bv4 32)) ?x34217)) (_ bv4 32) (ite (bvsge ?x36158 (bvadd (select ?x202 (_ bv3 32)) ?x28908)) (_ bv3 32) ?x35017))))
 (let ((?x80790 (ite (bvsle (_ bv25203 32) (bvadd (bvadd ?x61785 (bvsub (_ bv5 32) ?x30212)) (_ bv24003 32))) (_ bv4294967295 32) (_ bv0 32))))
 (let ((?x33960 (ite (bvsgt (_ bv22803 32) (bvadd (bvadd ?x61785 (bvsub (_ bv5 32) ?x30212)) (_ bv24003 32))) (_ bv1 32) ?x80790)))
 (let ((?x28130 (ite (bvsle (_ bv25203 32) (bvadd (bvadd ?x61785 (bvsub (_ bv6 32) ?x30212)) (_ bv24003 32))) (_ bv4294967295 32) (_ bv0 32))))
 (let ((?x34323 (ite (bvsgt (_ bv22803 32) (bvadd (bvadd ?x61785 (bvsub (_ bv6 32) ?x30212)) (_ bv24003 32))) (_ bv1 32) ?x28130)))
 (let ((?x23982 (ite (bvsge ?x36158 (bvadd (select ?x202 (_ bv6 32)) ?x34323)) (_ bv6 32) (ite (bvsge ?x36158 (bvadd (select ?x202 (_ bv5 32)) ?x33960)) (_ bv5 32) ?x2247))))
 (let ((?x79826 (ite (bvsle (_ bv25203 32) (bvadd (bvadd ?x61785 (bvsub (_ bv7 32) ?x30212)) (_ bv24003 32))) (_ bv4294967295 32) (_ bv0 32))))
 (let ((?x34938 (ite (bvsgt (_ bv22803 32) (bvadd (bvadd ?x61785 (bvsub (_ bv7 32) ?x30212)) (_ bv24003 32))) (_ bv1 32) ?x79826)))
 (let ((?x23375 (ite (bvsle (_ bv25203 32) (bvadd (bvadd ?x61785 (bvsub (_ bv8 32) ?x30212)) (_ bv24003 32))) (_ bv4294967295 32) (_ bv0 32))))
 (let ((?x35803 (ite (bvsgt (_ bv22803 32) (bvadd (bvadd ?x61785 (bvsub (_ bv8 32) ?x30212)) (_ bv24003 32))) (_ bv1 32) ?x23375)))
 (let ((?x58709 (ite (bvsge ?x36158 (bvadd (select ?x202 (_ bv8 32)) ?x35803)) (_ bv8 32) (ite (bvsge ?x36158 (bvadd (select ?x202 (_ bv7 32)) ?x34938)) (_ bv7 32) ?x23982))))
 (let ((?x51272 (ite (bvsle (_ bv25203 32) (bvadd (bvadd ?x61785 (bvsub (_ bv9 32) ?x30212)) (_ bv24003 32))) (_ bv4294967295 32) (_ bv0 32))))
 (let ((?x31002 (ite (bvsgt (_ bv22803 32) (bvadd (bvadd ?x61785 (bvsub (_ bv9 32) ?x30212)) (_ bv24003 32))) (_ bv1 32) ?x51272)))
 (let ((?x34697 (ite (bvsle (_ bv25203 32) (bvadd (bvadd ?x61785 (bvsub (_ bv10 32) ?x30212)) (_ bv24003 32))) (_ bv4294967295 32) (_ bv0 32))))
 (let ((?x28981 (ite (bvsgt (_ bv22803 32) (bvadd (bvadd ?x61785 (bvsub (_ bv10 32) ?x30212)) (_ bv24003 32))) (_ bv1 32) ?x34697)))
 (let ((?x17554 (ite (bvsge ?x36158 (bvadd (select ?x202 (_ bv10 32)) ?x28981)) (_ bv10 32) (ite (bvsge ?x36158 (bvadd (select ?x202 (_ bv9 32)) ?x31002)) (_ bv9 32) ?x58709))))
 (let ((?x84303 (ite (bvsle (_ bv25203 32) (bvadd (bvadd ?x61785 (bvsub (_ bv11 32) ?x30212)) (_ bv24003 32))) (_ bv4294967295 32) (_ bv0 32))))
 (let ((?x65411 (ite (bvsgt (_ bv22803 32) (bvadd (bvadd ?x61785 (bvsub (_ bv11 32) ?x30212)) (_ bv24003 32))) (_ bv1 32) ?x84303)))
 (let ((?x8544 (ite (bvsle (_ bv25203 32) (bvadd (bvadd ?x61785 (bvsub (_ bv12 32) ?x30212)) (_ bv24003 32))) (_ bv4294967295 32) (_ bv0 32))))
 (let ((?x23655 (ite (bvsgt (_ bv22803 32) (bvadd (bvadd ?x61785 (bvsub (_ bv12 32) ?x30212)) (_ bv24003 32))) (_ bv1 32) ?x8544)))
 (let ((?x33952 (ite (bvsge ?x36158 (bvadd (select ?x202 (_ bv12 32)) ?x23655)) (_ bv12 32) (ite (bvsge ?x36158 (bvadd (select ?x202 (_ bv11 32)) ?x65411)) (_ bv11 32) ?x17554))))
 (let ((?x69658 (ite (bvsle (_ bv25203 32) (bvadd (bvadd ?x61785 (bvsub (_ bv13 32) ?x30212)) (_ bv24003 32))) (_ bv4294967295 32) (_ bv0 32))))
 (let ((?x44133 (ite (bvsgt (_ bv22803 32) (bvadd (bvadd ?x61785 (bvsub (_ bv13 32) ?x30212)) (_ bv24003 32))) (_ bv1 32) ?x69658)))
 (let ((?x28959 (ite (bvsle (_ bv25203 32) (bvadd (bvadd ?x61785 (bvsub (_ bv14 32) ?x30212)) (_ bv24003 32))) (_ bv4294967295 32) (_ bv0 32))))
 (let ((?x66493 (ite (bvsgt (_ bv22803 32) (bvadd (bvadd ?x61785 (bvsub (_ bv14 32) ?x30212)) (_ bv24003 32))) (_ bv1 32) ?x28959)))
 (let ((?x35120 (ite (bvsge ?x36158 (bvadd (select ?x202 (_ bv14 32)) ?x66493)) (_ bv14 32) (ite (bvsge ?x36158 (bvadd (select ?x202 (_ bv13 32)) ?x44133)) (_ bv13 32) ?x33952))))
 (let ((?x64787 (ite (bvsle (_ bv25203 32) (bvadd (bvadd ?x61785 (bvsub (_ bv15 32) ?x30212)) (_ bv24003 32))) (_ bv4294967295 32) (_ bv0 32))))
 (let ((?x35016 (ite (bvsgt (_ bv22803 32) (bvadd (bvadd ?x61785 (bvsub (_ bv15 32) ?x30212)) (_ bv24003 32))) (_ bv1 32) ?x64787)))
 (let ((?x58118 (ite (bvsle (_ bv25203 32) (bvadd (bvadd ?x61785 (bvsub (_ bv16 32) ?x30212)) (_ bv24003 32))) (_ bv4294967295 32) (_ bv0 32))))
 (let ((?x28460 (ite (bvsgt (_ bv22803 32) (bvadd (bvadd ?x61785 (bvsub (_ bv16 32) ?x30212)) (_ bv24003 32))) (_ bv1 32) ?x58118)))
 (let ((?x33673 (ite (bvsge ?x36158 (bvadd (select ?x202 (_ bv16 32)) ?x28460)) (_ bv16 32) (ite (bvsge ?x36158 (bvadd (select ?x202 (_ bv15 32)) ?x35016)) (_ bv15 32) ?x35120))))
 (let ((?x18811 (ite (bvsle (_ bv25203 32) (bvadd (bvadd ?x61785 (bvsub (_ bv17 32) ?x30212)) (_ bv24003 32))) (_ bv4294967295 32) (_ bv0 32))))
 (let ((?x16173 (ite (bvsgt (_ bv22803 32) (bvadd (bvadd ?x61785 (bvsub (_ bv17 32) ?x30212)) (_ bv24003 32))) (_ bv1 32) ?x18811)))
 (let ((?x77789 (ite (bvsle (_ bv25203 32) (bvadd (bvadd ?x61785 (bvsub (_ bv18 32) ?x30212)) (_ bv24003 32))) (_ bv4294967295 32) (_ bv0 32))))
 (let ((?x72887 (ite (bvsgt (_ bv22803 32) (bvadd (bvadd ?x61785 (bvsub (_ bv18 32) ?x30212)) (_ bv24003 32))) (_ bv1 32) ?x77789)))
 (let ((?x18915 (ite (bvsge ?x36158 (bvadd (select ?x202 (_ bv18 32)) ?x72887)) (_ bv18 32) (ite (bvsge ?x36158 (bvadd (select ?x202 (_ bv17 32)) ?x16173)) (_ bv17 32) ?x33673))))
 (let ((?x64045 (ite (bvsle (_ bv25203 32) (bvadd (bvadd ?x61785 (bvsub (_ bv19 32) ?x30212)) (_ bv24003 32))) (_ bv4294967295 32) (_ bv0 32))))
 (let ((?x58084 (ite (bvsgt (_ bv22803 32) (bvadd (bvadd ?x61785 (bvsub (_ bv19 32) ?x30212)) (_ bv24003 32))) (_ bv1 32) ?x64045)))
 (let ((?x61763 (ite (bvsle (_ bv25203 32) (bvadd (bvadd ?x61785 (bvsub (_ bv20 32) ?x30212)) (_ bv24003 32))) (_ bv4294967295 32) (_ bv0 32))))
 (let ((?x81966 (ite (bvsgt (_ bv22803 32) (bvadd (bvadd ?x61785 (bvsub (_ bv20 32) ?x30212)) (_ bv24003 32))) (_ bv1 32) ?x61763)))
 (let ((?x25861 (ite (bvsge ?x36158 (bvadd (select ?x202 (_ bv20 32)) ?x81966)) (_ bv20 32) (ite (bvsge ?x36158 (bvadd (select ?x202 (_ bv19 32)) ?x58084)) (_ bv19 32) ?x18915))))
 (let ((?x28633 (ite (bvsle (_ bv25203 32) (bvadd (bvadd ?x61785 (bvsub (_ bv21 32) ?x30212)) (_ bv24003 32))) (_ bv4294967295 32) (_ bv0 32))))
 (let ((?x28176 (ite (bvsgt (_ bv22803 32) (bvadd (bvadd ?x61785 (bvsub (_ bv21 32) ?x30212)) (_ bv24003 32))) (_ bv1 32) ?x28633)))
 (let ((?x72385 (ite (bvsle (_ bv25203 32) (bvadd (bvadd ?x61785 (bvsub (_ bv22 32) ?x30212)) (_ bv24003 32))) (_ bv4294967295 32) (_ bv0 32))))
 (let ((?x33092 (ite (bvsgt (_ bv22803 32) (bvadd (bvadd ?x61785 (bvsub (_ bv22 32) ?x30212)) (_ bv24003 32))) (_ bv1 32) ?x72385)))
 (let ((?x33706 (ite (bvsge ?x36158 (bvadd (select ?x202 (_ bv22 32)) ?x33092)) (_ bv22 32) (ite (bvsge ?x36158 (bvadd (select ?x202 (_ bv21 32)) ?x28176)) (_ bv21 32) ?x25861))))
 (let ((?x14261 (ite (bvsle (_ bv25203 32) (bvadd (bvadd ?x61785 (bvsub (_ bv23 32) ?x30212)) (_ bv24003 32))) (_ bv4294967295 32) (_ bv0 32))))
 (let ((?x17073 (ite (bvsgt (_ bv22803 32) (bvadd (bvadd ?x61785 (bvsub (_ bv23 32) ?x30212)) (_ bv24003 32))) (_ bv1 32) ?x14261)))
 (let ((?x37277 (ite (bvsle (_ bv25203 32) (bvadd (bvadd ?x61785 (bvsub (_ bv24 32) ?x30212)) (_ bv24003 32))) (_ bv4294967295 32) (_ bv0 32))))
 (let ((?x77891 (ite (bvsgt (_ bv22803 32) (bvadd (bvadd ?x61785 (bvsub (_ bv24 32) ?x30212)) (_ bv24003 32))) (_ bv1 32) ?x37277)))
 (let ((?x34994 (ite (bvsge ?x36158 (bvadd (select ?x202 (_ bv24 32)) ?x77891)) (_ bv24 32) (ite (bvsge ?x36158 (bvadd (select ?x202 (_ bv23 32)) ?x17073)) (_ bv23 32) ?x33706))))
 (let ((?x28529 (ite (bvsle (_ bv25203 32) (bvadd (bvadd ?x61785 (bvsub (_ bv25 32) ?x30212)) (_ bv24003 32))) (_ bv4294967295 32) (_ bv0 32))))
 (let ((?x53823 (ite (bvsgt (_ bv22803 32) (bvadd (bvadd ?x61785 (bvsub (_ bv25 32) ?x30212)) (_ bv24003 32))) (_ bv1 32) ?x28529)))
 (let ((?x23675 (ite (bvsle (_ bv25203 32) (bvadd (bvadd ?x61785 (bvsub (_ bv26 32) ?x30212)) (_ bv24003 32))) (_ bv4294967295 32) (_ bv0 32))))
 (let ((?x23343 (ite (bvsgt (_ bv22803 32) (bvadd (bvadd ?x61785 (bvsub (_ bv26 32) ?x30212)) (_ bv24003 32))) (_ bv1 32) ?x23675)))
 (let ((?x72870 (ite (bvsge ?x36158 (bvadd (select ?x202 (_ bv26 32)) ?x23343)) (_ bv26 32) (ite (bvsge ?x36158 (bvadd (select ?x202 (_ bv25 32)) ?x53823)) (_ bv25 32) ?x34994))))
 (let ((?x37632 (ite (bvsle (_ bv25203 32) (bvadd (bvadd ?x61785 (bvsub (_ bv27 32) ?x30212)) (_ bv24003 32))) (_ bv4294967295 32) (_ bv0 32))))
 (let ((?x25058 (ite (bvsgt (_ bv22803 32) (bvadd (bvadd ?x61785 (bvsub (_ bv27 32) ?x30212)) (_ bv24003 32))) (_ bv1 32) ?x37632)))
 (let ((?x5347 (ite (bvsle (_ bv25203 32) (bvadd (bvadd ?x61785 (bvsub (_ bv28 32) ?x30212)) (_ bv24003 32))) (_ bv4294967295 32) (_ bv0 32))))
 (let ((?x7911 (ite (bvsgt (_ bv22803 32) (bvadd (bvadd ?x61785 (bvsub (_ bv28 32) ?x30212)) (_ bv24003 32))) (_ bv1 32) ?x5347)))
 (let ((?x33961 (ite (bvsge ?x36158 (bvadd (select ?x202 (_ bv28 32)) ?x7911)) (_ bv28 32) (ite (bvsge ?x36158 (bvadd (select ?x202 (_ bv27 32)) ?x25058)) (_ bv27 32) ?x72870))))
 (let ((?x61964 (ite (bvsle (_ bv25203 32) (bvadd (bvadd ?x61785 (bvsub (_ bv29 32) ?x30212)) (_ bv24003 32))) (_ bv4294967295 32) (_ bv0 32))))
 (let ((?x28312 (ite (bvsgt (_ bv22803 32) (bvadd (bvadd ?x61785 (bvsub (_ bv29 32) ?x30212)) (_ bv24003 32))) (_ bv1 32) ?x61964)))
 (let ((?x61962 (ite (bvsle (_ bv25203 32) (bvadd (bvadd ?x61785 (bvsub (_ bv30 32) ?x30212)) (_ bv24003 32))) (_ bv4294967295 32) (_ bv0 32))))
 (let ((?x10289 (ite (bvsgt (_ bv22803 32) (bvadd (bvadd ?x61785 (bvsub (_ bv30 32) ?x30212)) (_ bv24003 32))) (_ bv1 32) ?x61962)))
 (let ((?x43880 (ite (bvsge ?x36158 (bvadd (select ?x202 (_ bv30 32)) ?x10289)) (_ bv30 32) (ite (bvsge ?x36158 (bvadd (select ?x202 (_ bv29 32)) ?x28312)) (_ bv29 32) ?x33961))))
 (let ((?x26191 (ite (bvsle (_ bv25203 32) (bvadd (bvadd ?x61785 (bvsub (_ bv31 32) ?x30212)) (_ bv24003 32))) (_ bv4294967295 32) (_ bv0 32))))
 (let ((?x29097 (ite (bvsgt (_ bv22803 32) (bvadd (bvadd ?x61785 (bvsub (_ bv31 32) ?x30212)) (_ bv24003 32))) (_ bv1 32) ?x26191)))
 (let ((?x35500 (ite (bvsle (_ bv25203 32) (bvadd (bvadd ?x61785 (bvsub (_ bv32 32) ?x30212)) (_ bv24003 32))) (_ bv4294967295 32) (_ bv0 32))))
 (let ((?x35797 (ite (bvsgt (_ bv22803 32) (bvadd (bvadd ?x61785 (bvsub (_ bv32 32) ?x30212)) (_ bv24003 32))) (_ bv1 32) ?x35500)))
 (let ((?x26206 (ite (bvsge ?x36158 (bvadd (select ?x202 (_ bv32 32)) ?x35797)) (_ bv32 32) (ite (bvsge ?x36158 (bvadd (select ?x202 (_ bv31 32)) ?x29097)) (_ bv31 32) ?x43880))))
 (let ((?x57532 (ite (bvsle (_ bv25203 32) (bvadd (bvadd ?x61785 (bvsub (_ bv33 32) ?x30212)) (_ bv24003 32))) (_ bv4294967295 32) (_ bv0 32))))
 (let ((?x29163 (ite (bvsgt (_ bv22803 32) (bvadd (bvadd ?x61785 (bvsub (_ bv33 32) ?x30212)) (_ bv24003 32))) (_ bv1 32) ?x57532)))
 (let ((?x22484 (ite (bvsle (_ bv25203 32) (bvadd (bvadd ?x61785 (bvsub (_ bv34 32) ?x30212)) (_ bv24003 32))) (_ bv4294967295 32) (_ bv0 32))))
 (let ((?x85914 (ite (bvsgt (_ bv22803 32) (bvadd (bvadd ?x61785 (bvsub (_ bv34 32) ?x30212)) (_ bv24003 32))) (_ bv1 32) ?x22484)))
 (let ((?x58685 (ite (bvsge ?x36158 (bvadd (select ?x202 (_ bv34 32)) ?x85914)) (_ bv34 32) (ite (bvsge ?x36158 (bvadd (select ?x202 (_ bv33 32)) ?x29163)) (_ bv33 32) ?x26206))))
 (let ((?x21294 (ite (bvsle (_ bv25203 32) (bvadd (bvadd ?x61785 (bvsub (_ bv35 32) ?x30212)) (_ bv24003 32))) (_ bv4294967295 32) (_ bv0 32))))
 (let ((?x21453 (ite (bvsgt (_ bv22803 32) (bvadd (bvadd ?x61785 (bvsub (_ bv35 32) ?x30212)) (_ bv24003 32))) (_ bv1 32) ?x21294)))
 (let ((?x15743 (ite (bvsle (_ bv25203 32) (bvadd (bvadd ?x61785 (bvsub (_ bv36 32) ?x30212)) (_ bv24003 32))) (_ bv4294967295 32) (_ bv0 32))))
 (let ((?x34277 (ite (bvsgt (_ bv22803 32) (bvadd (bvadd ?x61785 (bvsub (_ bv36 32) ?x30212)) (_ bv24003 32))) (_ bv1 32) ?x15743)))
 (let ((?x35030 (ite (bvsge ?x36158 (bvadd (select ?x202 (_ bv36 32)) ?x34277)) (_ bv36 32) (ite (bvsge ?x36158 (bvadd (select ?x202 (_ bv35 32)) ?x21453)) (_ bv35 32) ?x58685))))
 (let ((?x34284 (ite (bvsle (_ bv25203 32) (bvadd (bvadd ?x61785 (bvsub (_ bv37 32) ?x30212)) (_ bv24003 32))) (_ bv4294967295 32) (_ bv0 32))))
 (let ((?x27692 (ite (bvsgt (_ bv22803 32) (bvadd (bvadd ?x61785 (bvsub (_ bv37 32) ?x30212)) (_ bv24003 32))) (_ bv1 32) ?x34284)))
 (let ((?x33642 (ite (bvsle (_ bv25203 32) (bvadd (bvadd ?x61785 (bvsub (_ bv38 32) ?x30212)) (_ bv24003 32))) (_ bv4294967295 32) (_ bv0 32))))
 (let ((?x30220 (ite (bvsgt (_ bv22803 32) (bvadd (bvadd ?x61785 (bvsub (_ bv38 32) ?x30212)) (_ bv24003 32))) (_ bv1 32) ?x33642)))
 (let ((?x30743 (ite (bvsge ?x36158 (bvadd (select ?x202 (_ bv38 32)) ?x30220)) (_ bv38 32) (ite (bvsge ?x36158 (bvadd (select ?x202 (_ bv37 32)) ?x27692)) (_ bv37 32) ?x35030))))
 (let ((?x33570 (ite (bvsle (_ bv25203 32) (bvadd (bvadd ?x61785 (bvsub (_ bv39 32) ?x30212)) (_ bv24003 32))) (_ bv4294967295 32) (_ bv0 32))))
 (let ((?x27826 (ite (bvsgt (_ bv22803 32) (bvadd (bvadd ?x61785 (bvsub (_ bv39 32) ?x30212)) (_ bv24003 32))) (_ bv1 32) ?x33570)))
 (let ((?x31926 (ite (bvsle (_ bv25203 32) (bvadd (bvadd ?x61785 (bvsub (_ bv40 32) ?x30212)) (_ bv24003 32))) (_ bv4294967295 32) (_ bv0 32))))
 (let ((?x81473 (ite (bvsgt (_ bv22803 32) (bvadd (bvadd ?x61785 (bvsub (_ bv40 32) ?x30212)) (_ bv24003 32))) (_ bv1 32) ?x31926)))
 (let ((?x29422 (ite (bvsge ?x36158 (bvadd (select ?x202 (_ bv40 32)) ?x81473)) (_ bv40 32) (ite (bvsge ?x36158 (bvadd (select ?x202 (_ bv39 32)) ?x27826)) (_ bv39 32) ?x30743))))
 (let ((?x30442 (ite (bvsle (_ bv25203 32) (bvadd (bvadd ?x61785 (bvsub (_ bv41 32) ?x30212)) (_ bv24003 32))) (_ bv4294967295 32) (_ bv0 32))))
 (let ((?x57647 (ite (bvsgt (_ bv22803 32) (bvadd (bvadd ?x61785 (bvsub (_ bv41 32) ?x30212)) (_ bv24003 32))) (_ bv1 32) ?x30442)))
 (let ((?x9731 (ite (bvsle (_ bv25203 32) (bvadd (bvadd ?x61785 (bvsub (_ bv42 32) ?x30212)) (_ bv24003 32))) (_ bv4294967295 32) (_ bv0 32))))
 (let ((?x58469 (ite (bvsgt (_ bv22803 32) (bvadd (bvadd ?x61785 (bvsub (_ bv42 32) ?x30212)) (_ bv24003 32))) (_ bv1 32) ?x9731)))
 (let ((?x29481 (ite (bvsge ?x36158 (bvadd (select ?x202 (_ bv42 32)) ?x58469)) (_ bv42 32) (ite (bvsge ?x36158 (bvadd (select ?x202 (_ bv41 32)) ?x57647)) (_ bv41 32) ?x29422))))
 (let ((?x30152 (ite (bvsle (_ bv25203 32) (bvadd (bvadd ?x61785 (bvsub (_ bv43 32) ?x30212)) (_ bv24003 32))) (_ bv4294967295 32) (_ bv0 32))))
 (let ((?x29269 (ite (bvsgt (_ bv22803 32) (bvadd (bvadd ?x61785 (bvsub (_ bv43 32) ?x30212)) (_ bv24003 32))) (_ bv1 32) ?x30152)))
 (let ((?x24348 (ite (bvsle (_ bv25203 32) (bvadd (bvadd ?x61785 (bvsub (_ bv44 32) ?x30212)) (_ bv24003 32))) (_ bv4294967295 32) (_ bv0 32))))
 (let ((?x58151 (ite (bvsgt (_ bv22803 32) (bvadd (bvadd ?x61785 (bvsub (_ bv44 32) ?x30212)) (_ bv24003 32))) (_ bv1 32) ?x24348)))
 (let ((?x32446 (ite (bvsge ?x36158 (bvadd (select ?x202 (_ bv44 32)) ?x58151)) (_ bv44 32) (ite (bvsge ?x36158 (bvadd (select ?x202 (_ bv43 32)) ?x29269)) (_ bv43 32) ?x29481))))
 (let ((?x28940 (ite (bvsle (_ bv25203 32) (bvadd (bvadd ?x61785 (bvsub (_ bv45 32) ?x30212)) (_ bv24003 32))) (_ bv4294967295 32) (_ bv0 32))))
 (let ((?x36326 (ite (bvsgt (_ bv22803 32) (bvadd (bvadd ?x61785 (bvsub (_ bv45 32) ?x30212)) (_ bv24003 32))) (_ bv1 32) ?x28940)))
 (let ((?x80800 (ite (bvsle (_ bv25203 32) (bvadd (bvadd ?x61785 (bvsub (_ bv46 32) ?x30212)) (_ bv24003 32))) (_ bv4294967295 32) (_ bv0 32))))
 (let ((?x28998 (ite (bvsgt (_ bv22803 32) (bvadd (bvadd ?x61785 (bvsub (_ bv46 32) ?x30212)) (_ bv24003 32))) (_ bv1 32) ?x80800)))
 (let ((?x24640 (ite (bvsge ?x36158 (bvadd (select ?x202 (_ bv46 32)) ?x28998)) (_ bv46 32) (ite (bvsge ?x36158 (bvadd (select ?x202 (_ bv45 32)) ?x36326)) (_ bv45 32) ?x32446))))
 (let ((?x43964 (ite (bvsle (_ bv25203 32) (bvadd (bvadd ?x61785 (bvsub (_ bv47 32) ?x30212)) (_ bv24003 32))) (_ bv4294967295 32) (_ bv0 32))))
 (let ((?x23281 (ite (bvsgt (_ bv22803 32) (bvadd (bvadd ?x61785 (bvsub (_ bv47 32) ?x30212)) (_ bv24003 32))) (_ bv1 32) ?x43964)))
 (let ((?x22961 (ite (bvsge ?x36158 (bvadd (select ?x202 (_ bv47 32)) ?x23281)) (_ bv47 32) ?x24640)))
 (let ((?x23097 (bvadd ?x61785 (bvsub ?x22961 ?x30212))))
 (let ((?x23767 (bvadd ?x23097 (_ bv24003 32))))
 (let ((?x35096 (bvadd (select ?x202 ?x22961) (ite (bvsgt (_ bv22803 32) ?x23767) (_ bv1 32) (ite (bvsle (_ bv25203 32) ?x23767) (_ bv4294967295 32) (_ bv0 32))))))
 (let ((?x61746 (bvsub ?x36158 ?x35096)))
 (let ((?x35678 (ite (or (= (_ bv22802 32) ?x23767) (= (_ bv25202 32) ?x23767)) (_ bv28 32) (select ?x108 ?x22961))))
 (let ((?x84627 (ite (= (_ bv1 32) (ite (bvsge ?x61746 ?x35678) (_ bv1 32) (_ bv0 32))) (bvsub ?x61746 ?x35678) ?x61746)))
 (and (= y_months (bvadd ?x23097 (ite (bvsge ?x61746 ?x35678) (_ bv1 32) (_ bv0 32)))) (= y_beta ?x84627))))))))))))))))))))))))))))))))))))))))))))))))))))))))))))))))))))))))))))))))))))))))))))))))))))))))))))))))))))))))))))))))))))))))))))))))))))))))))))))))))))))))))))))))))))))))))))))))))))))))
(assert
 (and (= y_months (bvsub (bvadd (bvmul (_ bv2023 32) (_ bv12 32)) (_ bv4 32)) (_ bv24003 32))) (= (_ bv29 32) y_beta)))
(check-sat)
